c Generated Levenshtein permutation graph
p edge 42 205
e 1 8
e 1 9
e 1 11
e 1 12
e 1 17
e 1 18
e 1 25
e 1 26
e 2 10
e 2 12
e 2 13
e 2 14
e 2 19
e 2 21
e 2 22
e 2 23
e 2 24
e 2 26
e 2 27
e 2 28
e 2 33
e 2 35
e 2 36
e 2 37
e 3 6
e 3 12
e 3 13
e 3 14
e 3 15
e 3 19
e 3 20
e 3 22
e 3 23
e 3 26
e 3 27
e 3 28
e 3 35
e 3 36
e 3 37
e 4 6
e 4 10
e 4 11
e 4 19
e 4 20
e 4 22
e 4 23
e 4 26
e 4 27
e 4 28
e 4 33
e 4 34
e 5 6
e 5 10
e 5 11
e 5 15
e 5 24
e 5 25
e 6 16
e 6 17
e 6 18
e 6 21
e 6 24
e 6 25
e 6 26
e 6 28
e 6 30
e 6 31
e 6 32
e 6 35
e 7 15
e 7 17
e 7 18
e 7 22
e 7 24
e 7 25
e 7 26
e 7 27
e 7 29
e 7 31
e 7 32
e 7 36
e 7 38
e 7 39
e 7 40
e 7 41
e 8 15
e 8 16
e 8 19
e 8 24
e 8 25
e 8 26
e 8 27
e 8 31
e 8 32
e 8 36
e 8 38
e 8 39
e 8 40
e 8 41
e 9 15
e 9 16
e 9 19
e 9 24
e 9 25
e 9 26
e 9 27
e 9 29
e 9 30
e 9 33
e 10 15
e 10 16
e 10 17
e 10 18
e 10 20
e 10 25
e 10 26
e 10 28
e 10 31
e 10 32
e 10 35
e 11 15
e 11 16
e 11 17
e 11 18
e 11 24
e 11 27
e 11 36
e 11 38
e 11 41
e 12 15
e 12 16
e 12 17
e 12 18
e 12 24
e 12 27
e 12 29
e 12 33
e 13 16
e 13 17
e 13 18
e 13 20
e 13 25
e 13 26
e 13 28
e 13 30
e 13 34
e 14 15
e 14 24
e 14 27
e 15 30
e 15 32
e 15 40
e 16 22
e 16 29
e 16 32
e 16 33
e 16 34
e 16 35
e 16 36
e 16 41
e 17 19
e 17 32
e 17 33
e 17 34
e 17 35
e 17 36
e 17 41
e 18 29
e 18 30
e 18 31
e 18 38
e 19 30
e 19 31
e 19 34
e 19 35
e 19 37
e 19 39
e 20 30
e 20 31
e 20 33
e 20 36
e 21 30
e 21 31
e 21 33
e 21 36
e 22 30
e 22 31
e 22 34
e 22 35
e 22 37
e 22 39
e 23 33
e 23 36
e 24 32
e 24 40
e 25 33
e 25 36
e 25 41
e 26 29
e 26 38
e 27 30
e 27 31
e 27 39
e 30 36
e 31 33
